c Random generated cnf formula, satisfiable: false
p cnf 10 50
2 -5 -4 0
-6 9 2 0
9 8 -10 0
-10 -5 8 0
-9 -1 3 0
-5 4 8 0
2 -9 -8 0
2 -3 1 0
4 2 5 0
-8 -5 7 0
-8 6 2 0
-7 -9 -10 0
-8 -6 10 0
-9 10 4 0
-8 5 -9 0
-3 -5 10 0
1 5 2 0
5 4 3 0
-4 -2 -9 0
2 4 9 0
-10 -8 -7 0
-5 -2 8 0
2 9 7 0
-9 -3 -4 0
10 -5 8 0
-9 -4 1 0
6 -9 -7 0
-5 -3 9 0
-8 -7 -3 0
1 6 -9 0
-8 -4 10 0
7 4 6 0
-5 8 -10 0
-5 -1 -2 0
-6 -1 -5 0
-2 9 -4 0
4 8 -9 0
9 4 6 0
-10 -8 4 0
8 6 4 0
5 -9 -3 0
-9 -5 -2 0
-2 -1 -10 0
10 1 -7 0
8 -3 4 0
-6 5 9 0
7 -9 -4 0
-4 1 -2 0
6 9 8 0
-6 9 1 0
